p cnf 488 1916
49 36 -23 0
28 45 -16 0
5 -21 -6 0
-31 36 14 0
24 34 49 0
41 -27 14 0
24 32 -26 0
-15 11 -13 0
-38 8 -4 0
15 -13 -25 0
20 41 -1 0
-33 40 42 0
-19 -33 47 0
-45 -44 -23 0
-36 -17 -47 0
-34 -6 30 0
-23 19 40 0
50 15 31 0
47 17 8 0
-42 2 19 0
2 -27 23 0
15 -32 -6 0
31 -41 48 0
46 4 36 0
-28 -7 -23 0
-16 23 -25 0
20 7 -25 0
47 -9 -43 0
23 -33 21 0
36 -25 -4 0
-11 34 -26 0
24 43 22 0
-28 -46 -39 0
-49 11 16 0
-50 -32 -35 0
-22 47 24 0
19 -42 -44 0
8 15 6 0
-21 -37 41 0
-20 6 19 0
45 47 -41 0
-26 43 -46 0
-39 47 46 0
-16 -41 47 0
-42 -50 47 0
-48 -18 27 0
-1 50 40 0
49 50 -22 0
7 42 4 0
-35 3 48 0
50 -32 19 0
32 -7 1 0
-7 49 38 0
-2 30 -19 0
-6 -21 -33 0
6 -10 -19 0
-22 27 -6 0
41 21 -46 0
34 -31 -4 0
-47 20 7 0
32 -28 -16 0
-37 -45 21 0
-13 1 3 0
7 -15 -35 0
-40 -2 46 0
-43 18 -25 0
-48 31 -43 0
28 8 2 0
-45 43 -49 0
-50 37 -26 0
-27 40 -21 0
-24 -39 21 0
20 46 41 0
3 -4 30 0
-3 25 13 0
-19 5 10 0
-8 30 26 0
21 34 22 0
-36 -50 -48 0
-15 10 20 0
46 20 21 0
14 -50 31 0
-14 7 -34 0
-3 -21 -25 0
-27 -50 5 0
19 -41 1 0
-5 -17 -15 0
-4 16 -37 0
43 -3 46 0
-13 -29 17 0
-10 18 -48 0
25 -32 41 0
37 -26 -16 0
31 -18 48 0
21 -39 31 0
45 16 -22 0
-12 -48 -11 0
10 35 -6 0
50 26 -21 0
18 -49 -6 0
1 -2 51 0
-1 -2 -51 0
1 2 -51 0
-1 2 51 0
3 -6 52 0
-3 -6 -52 0
3 6 -52 0
-3 6 52 0
8 -9 53 0
-8 -9 -53 0
8 9 -53 0
-8 9 53 0
-12 13 54 0
12 13 -54 0
-12 -13 -54 0
12 -13 54 0
-15 -16 55 0
15 -16 -55 0
-15 16 -55 0
15 16 55 0
-17 19 56 0
17 19 -56 0
-17 -19 -56 0
17 -19 56 0
-20 -21 57 0
20 -21 -57 0
-20 21 -57 0
20 21 57 0
-22 -23 58 0
22 -23 -58 0
-22 23 -58 0
22 23 58 0
24 25 59 0
-24 25 -59 0
24 -25 -59 0
-24 -25 59 0
-26 -28 60 0
26 -28 -60 0
-26 28 -60 0
26 28 60 0
30 -32 61 0
-30 -32 -61 0
30 32 -61 0
-30 32 61 0
34 -35 62 0
-34 -35 -62 0
34 35 -62 0
-34 35 62 0
-36 -42 63 0
36 -42 -63 0
-36 42 -63 0
36 42 63 0
43 -47 64 0
-43 -47 -64 0
43 47 -64 0
-43 47 64 0
50 -51 65 0
-50 -51 -65 0
50 51 -65 0
-50 51 65 0
52 -53 66 0
-52 -53 -66 0
52 53 -66 0
-52 53 66 0
54 -55 67 0
-54 -55 -67 0
54 55 -67 0
-54 55 67 0
56 -57 68 0
-56 -57 -68 0
56 57 -68 0
-56 57 68 0
58 -59 69 0
-58 -59 -69 0
58 59 -69 0
-58 59 69 0
60 -61 70 0
-60 -61 -70 0
60 61 -70 0
-60 61 70 0
62 -63 71 0
-62 -63 -71 0
62 63 -71 0
-62 63 71 0
64 -65 72 0
-64 -65 -72 0
64 65 -72 0
-64 65 72 0
66 -67 73 0
-66 -67 -73 0
66 67 -73 0
-66 67 73 0
68 -69 74 0
-68 -69 -74 0
68 69 -74 0
-68 69 74 0
70 -71 75 0
-70 -71 -75 0
70 71 -75 0
-70 71 75 0
72 -73 76 0
-72 -73 -76 0
72 73 -76 0
-72 73 76 0
74 -75 77 0
-74 -75 -77 0
74 75 -77 0
-74 75 77 0
76 77 0
-76 -77 0
-2 -4 78 0
2 -4 -78 0
-2 4 -78 0
2 4 78 0
-8 -9 79 0
8 -9 -79 0
-8 9 -79 0
8 9 79 0
-10 -12 80 0
10 -12 -80 0
-10 12 -80 0
10 12 80 0
-13 14 81 0
13 14 -81 0
-13 -14 -81 0
13 -14 81 0
15 -16 82 0
-15 -16 -82 0
15 16 -82 0
-15 16 82 0
-18 20 83 0
18 20 -83 0
-18 -20 -83 0
18 -20 83 0
22 -24 84 0
-22 -24 -84 0
22 24 -84 0
-22 24 84 0
-35 36 85 0
35 36 -85 0
-35 -36 -85 0
35 -36 85 0
38 42 86 0
-38 42 -86 0
38 -42 -86 0
-38 -42 86 0
44 46 87 0
-44 46 -87 0
44 -46 -87 0
-44 -46 87 0
-48 49 88 0
48 49 -88 0
-48 -49 -88 0
48 -49 88 0
78 -79 89 0
-78 -79 -89 0
78 79 -89 0
-78 79 89 0
80 -81 90 0
-80 -81 -90 0
80 81 -90 0
-80 81 90 0
82 -83 91 0
-82 -83 -91 0
82 83 -91 0
-82 83 91 0
84 -85 92 0
-84 -85 -92 0
84 85 -92 0
-84 85 92 0
86 -87 93 0
-86 -87 -93 0
86 87 -93 0
-86 87 93 0
88 -89 94 0
-88 -89 -94 0
88 89 -94 0
-88 89 94 0
90 -91 95 0
-90 -91 -95 0
90 91 -95 0
-90 91 95 0
92 -93 96 0
-92 -93 -96 0
92 93 -96 0
-92 93 96 0
-94 -95 96 0
94 -95 -96 0
-94 95 -96 0
94 95 96 0
-2 -4 97 0
2 -4 -97 0
-2 4 -97 0
2 4 97 0
5 8 98 0
-5 8 -98 0
5 -8 -98 0
-5 -8 98 0
9 10 99 0
-9 10 -99 0
9 -10 -99 0
-9 -10 99 0
13 15 100 0
-13 15 -100 0
13 -15 -100 0
-13 -15 100 0
-17 19 101 0
17 19 -101 0
-17 -19 -101 0
17 -19 101 0
20 23 102 0
-20 23 -102 0
20 -23 -102 0
-20 -23 102 0
-26 27 103 0
26 27 -103 0
-26 -27 -103 0
26 -27 103 0
-28 30 104 0
28 30 -104 0
-28 -30 -104 0
28 -30 104 0
32 -33 105 0
-32 -33 -105 0
32 33 -105 0
-32 33 105 0
-36 -37 106 0
36 -37 -106 0
-36 37 -106 0
36 37 106 0
38 -40 107 0
-38 -40 -107 0
38 40 -107 0
-38 40 107 0
42 47 108 0
-42 47 -108 0
42 -47 -108 0
-42 -47 108 0
-49 50 109 0
49 50 -109 0
-49 -50 -109 0
49 -50 109 0
97 -98 110 0
-97 -98 -110 0
97 98 -110 0
-97 98 110 0
99 -100 111 0
-99 -100 -111 0
99 100 -111 0
-99 100 111 0
101 -102 112 0
-101 -102 -112 0
101 102 -112 0
-101 102 112 0
103 -104 113 0
-103 -104 -113 0
103 104 -113 0
-103 104 113 0
105 -106 114 0
-105 -106 -114 0
105 106 -114 0
-105 106 114 0
107 -108 115 0
-107 -108 -115 0
107 108 -115 0
-107 108 115 0
109 -110 116 0
-109 -110 -116 0
109 110 -116 0
-109 110 116 0
111 -112 117 0
-111 -112 -117 0
111 112 -117 0
-111 112 117 0
113 -114 118 0
-113 -114 -118 0
113 114 -118 0
-113 114 118 0
115 -116 119 0
-115 -116 -119 0
115 116 -119 0
-115 116 119 0
117 -118 120 0
-117 -118 -120 0
117 118 -120 0
-117 118 120 0
119 120 0
-119 -120 0
-5 6 121 0
5 6 -121 0
-5 -6 -121 0
5 -6 121 0
-9 -10 122 0
9 -10 -122 0
-9 10 -122 0
9 10 122 0
12 -13 123 0
-12 -13 -123 0
12 13 -123 0
-12 13 123 0
14 -15 124 0
-14 -15 -124 0
14 15 -124 0
-14 15 124 0
-17 -18 125 0
17 -18 -125 0
-17 18 -125 0
17 18 125 0
-24 -25 126 0
24 -25 -126 0
-24 25 -126 0
24 25 126 0
26 29 127 0
-26 29 -127 0
26 -29 -127 0
-26 -29 127 0
30 31 128 0
-30 31 -128 0
30 -31 -128 0
-30 -31 128 0
-32 -33 129 0
32 -33 -129 0
-32 33 -129 0
32 33 129 0
-34 -35 130 0
34 -35 -130 0
-34 35 -130 0
34 35 130 0
37 -39 131 0
-37 -39 -131 0
37 39 -131 0
-37 39 131 0
40 -41 132 0
-40 -41 -132 0
40 41 -132 0
-40 41 132 0
45 -46 133 0
-45 -46 -133 0
45 46 -133 0
-45 46 133 0
120 -121 134 0
-120 -121 -134 0
120 121 -134 0
-120 121 134 0
122 -123 135 0
-122 -123 -135 0
122 123 -135 0
-122 123 135 0
124 -125 136 0
-124 -125 -136 0
124 125 -136 0
-124 125 136 0
126 -127 137 0
-126 -127 -137 0
126 127 -137 0
-126 127 137 0
128 -129 138 0
-128 -129 -138 0
128 129 -138 0
-128 129 138 0
130 -131 139 0
-130 -131 -139 0
130 131 -139 0
-130 131 139 0
132 -133 140 0
-132 -133 -140 0
132 133 -140 0
-132 133 140 0
134 -135 141 0
-134 -135 -141 0
134 135 -141 0
-134 135 141 0
136 -137 142 0
-136 -137 -142 0
136 137 -142 0
-136 137 142 0
138 -139 143 0
-138 -139 -143 0
138 139 -143 0
-138 139 143 0
140 -141 144 0
-140 -141 -144 0
140 141 -144 0
-140 141 144 0
142 -143 145 0
-142 -143 -145 0
142 143 -145 0
-142 143 145 0
144 145 0
-144 -145 0
4 5 146 0
-4 5 -146 0
4 -5 -146 0
-4 -5 146 0
-6 9 147 0
6 9 -147 0
-6 -9 -147 0
6 -9 147 0
-14 15 148 0
14 15 -148 0
-14 -15 -148 0
14 -15 148 0
-17 -21 149 0
17 -21 -149 0
-17 21 -149 0
17 21 149 0
-22 -24 150 0
22 -24 -150 0
-22 24 -150 0
22 24 150 0
25 -26 151 0
-25 -26 -151 0
25 26 -151 0
-25 26 151 0
-27 -29 152 0
27 -29 -152 0
-27 29 -152 0
27 29 152 0
-31 33 153 0
31 33 -153 0
-31 -33 -153 0
31 -33 153 0
-34 -36 154 0
34 -36 -154 0
-34 36 -154 0
34 36 154 0
-37 38 155 0
37 38 -155 0
-37 -38 -155 0
37 -38 155 0
40 42 156 0
-40 42 -156 0
40 -42 -156 0
-40 -42 156 0
-43 44 157 0
43 44 -157 0
-43 -44 -157 0
43 -44 157 0
45 -46 158 0
-45 -46 -158 0
45 46 -158 0
-45 46 158 0
-48 49 159 0
48 49 -159 0
-48 -49 -159 0
48 -49 159 0
146 -147 160 0
-146 -147 -160 0
146 147 -160 0
-146 147 160 0
148 -149 161 0
-148 -149 -161 0
148 149 -161 0
-148 149 161 0
150 -151 162 0
-150 -151 -162 0
150 151 -162 0
-150 151 162 0
152 -153 163 0
-152 -153 -163 0
152 153 -163 0
-152 153 163 0
154 -155 164 0
-154 -155 -164 0
154 155 -164 0
-154 155 164 0
156 -157 165 0
-156 -157 -165 0
156 157 -165 0
-156 157 165 0
158 -159 166 0
-158 -159 -166 0
158 159 -166 0
-158 159 166 0
160 -161 167 0
-160 -161 -167 0
160 161 -167 0
-160 161 167 0
162 -163 168 0
-162 -163 -168 0
162 163 -168 0
-162 163 168 0
164 -165 169 0
-164 -165 -169 0
164 165 -169 0
-164 165 169 0
166 -167 170 0
-166 -167 -170 0
166 167 -170 0
-166 167 170 0
168 -169 171 0
-168 -169 -171 0
168 169 -171 0
-168 169 171 0
170 171 0
-170 -171 0
3 -5 172 0
-3 -5 -172 0
3 5 -172 0
-3 5 172 0
-6 -7 173 0
6 -7 -173 0
-6 7 -173 0
6 7 173 0
-8 -9 174 0
8 -9 -174 0
-8 9 -174 0
8 9 174 0
-15 16 175 0
15 16 -175 0
-15 -16 -175 0
15 -16 175 0
-17 21 176 0
17 21 -176 0
-17 -21 -176 0
17 -21 176 0
22 -23 177 0
-22 -23 -177 0
22 23 -177 0
-22 23 177 0
24 -25 178 0
-24 -25 -178 0
24 25 -178 0
-24 25 178 0
26 27 179 0
-26 27 -179 0
26 -27 -179 0
-26 -27 179 0
-28 32 180 0
28 32 -180 0
-28 -32 -180 0
28 -32 180 0
-33 35 181 0
33 35 -181 0
-33 -35 -181 0
33 -35 181 0
-38 -39 182 0
38 -39 -182 0
-38 39 -182 0
38 39 182 0
-42 44 183 0
42 44 -183 0
-42 -44 -183 0
42 -44 183 0
-47 48 184 0
47 48 -184 0
-47 -48 -184 0
47 -48 184 0
172 -173 185 0
-172 -173 -185 0
172 173 -185 0
-172 173 185 0
174 -175 186 0
-174 -175 -186 0
174 175 -186 0
-174 175 186 0
176 -177 187 0
-176 -177 -187 0
176 177 -187 0
-176 177 187 0
178 -179 188 0
-178 -179 -188 0
178 179 -188 0
-178 179 188 0
180 -181 189 0
-180 -181 -189 0
180 181 -189 0
-180 181 189 0
182 -183 190 0
-182 -183 -190 0
182 183 -190 0
-182 183 190 0
184 -185 191 0
-184 -185 -191 0
184 185 -191 0
-184 185 191 0
186 -187 192 0
-186 -187 -192 0
186 187 -192 0
-186 187 192 0
188 -189 193 0
-188 -189 -193 0
188 189 -193 0
-188 189 193 0
190 -191 194 0
-190 -191 -194 0
190 191 -194 0
-190 191 194 0
192 -193 195 0
-192 -193 -195 0
192 193 -195 0
-192 193 195 0
194 195 0
-194 -195 0
-1 -2 196 0
1 -2 -196 0
-1 2 -196 0
1 2 196 0
-4 -5 197 0
4 -5 -197 0
-4 5 -197 0
4 5 197 0
-8 9 198 0
8 9 -198 0
-8 -9 -198 0
8 -9 198 0
10 -11 199 0
-10 -11 -199 0
10 11 -199 0
-10 11 199 0
-12 13 200 0
12 13 -200 0
-12 -13 -200 0
12 -13 200 0
15 16 201 0
-15 16 -201 0
15 -16 -201 0
-15 -16 201 0
-18 19 202 0
18 19 -202 0
-18 -19 -202 0
18 -19 202 0
-20 22 203 0
20 22 -203 0
-20 -22 -203 0
20 -22 203 0
-23 25 204 0
23 25 -204 0
-23 -25 -204 0
23 -25 204 0
26 -27 205 0
-26 -27 -205 0
26 27 -205 0
-26 27 205 0
29 -30 206 0
-29 -30 -206 0
29 30 -206 0
-29 30 206 0
-34 -36 207 0
34 -36 -207 0
-34 36 -207 0
34 36 207 0
37 39 208 0
-37 39 -208 0
37 -39 -208 0
-37 -39 208 0
40 -41 209 0
-40 -41 -209 0
40 41 -209 0
-40 41 209 0
42 -43 210 0
-42 -43 -210 0
42 43 -210 0
-42 43 210 0
44 -45 211 0
-44 -45 -211 0
44 45 -211 0
-44 45 211 0
-48 49 212 0
48 49 -212 0
-48 -49 -212 0
48 -49 212 0
196 -197 213 0
-196 -197 -213 0
196 197 -213 0
-196 197 213 0
198 -199 214 0
-198 -199 -214 0
198 199 -214 0
-198 199 214 0
200 -201 215 0
-200 -201 -215 0
200 201 -215 0
-200 201 215 0
202 -203 216 0
-202 -203 -216 0
202 203 -216 0
-202 203 216 0
204 -205 217 0
-204 -205 -217 0
204 205 -217 0
-204 205 217 0
206 -207 218 0
-206 -207 -218 0
206 207 -218 0
-206 207 218 0
208 -209 219 0
-208 -209 -219 0
208 209 -219 0
-208 209 219 0
210 -211 220 0
-210 -211 -220 0
210 211 -220 0
-210 211 220 0
212 -213 221 0
-212 -213 -221 0
212 213 -221 0
-212 213 221 0
214 -215 222 0
-214 -215 -222 0
214 215 -222 0
-214 215 222 0
216 -217 223 0
-216 -217 -223 0
216 217 -223 0
-216 217 223 0
218 -219 224 0
-218 -219 -224 0
218 219 -224 0
-218 219 224 0
220 -221 225 0
-220 -221 -225 0
220 221 -225 0
-220 221 225 0
222 -223 226 0
-222 -223 -226 0
222 223 -226 0
-222 223 226 0
-224 -225 226 0
224 -225 -226 0
-224 225 -226 0
224 225 226 0
1 -2 227 0
-1 -2 -227 0
1 2 -227 0
-1 2 227 0
3 -4 228 0
-3 -4 -228 0
3 4 -228 0
-3 4 228 0
-5 6 229 0
5 6 -229 0
-5 -6 -229 0
5 -6 229 0
7 10 230 0
-7 10 -230 0
7 -10 -230 0
-7 -10 230 0
13 20 231 0
-13 20 -231 0
13 -20 -231 0
-13 -20 231 0
-21 22 232 0
21 22 -232 0
-21 -22 -232 0
21 -22 232 0
23 24 233 0
-23 24 -233 0
23 -24 -233 0
-23 -24 233 0
29 -30 234 0
-29 -30 -234 0
29 30 -234 0
-29 30 234 0
32 35 235 0
-32 35 -235 0
32 -35 -235 0
-32 -35 235 0
-39 -41 236 0
39 -41 -236 0
-39 41 -236 0
39 41 236 0
42 -43 237 0
-42 -43 -237 0
42 43 -237 0
-42 43 237 0
47 -48 238 0
-47 -48 -238 0
47 48 -238 0
-47 48 238 0
227 -228 239 0
-227 -228 -239 0
227 228 -239 0
-227 228 239 0
229 -230 240 0
-229 -230 -240 0
229 230 -240 0
-229 230 240 0
231 -232 241 0
-231 -232 -241 0
231 232 -241 0
-231 232 241 0
233 -234 242 0
-233 -234 -242 0
233 234 -242 0
-233 234 242 0
235 -236 243 0
-235 -236 -243 0
235 236 -243 0
-235 236 243 0
237 -238 244 0
-237 -238 -244 0
237 238 -244 0
-237 238 244 0
239 -240 245 0
-239 -240 -245 0
239 240 -245 0
-239 240 245 0
241 -242 246 0
-241 -242 -246 0
241 242 -246 0
-241 242 246 0
243 -244 247 0
-243 -244 -247 0
243 244 -247 0
-243 244 247 0
-245 -246 247 0
245 -246 -247 0
-245 246 -247 0
245 246 247 0
-2 3 248 0
2 3 -248 0
-2 -3 -248 0
2 -3 248 0
4 7 249 0
-4 7 -249 0
4 -7 -249 0
-4 -7 249 0
8 -9 250 0
-8 -9 -250 0
8 9 -250 0
-8 9 250 0
12 -13 251 0
-12 -13 -251 0
12 13 -251 0
-12 13 251 0
15 -18 252 0
-15 -18 -252 0
15 18 -252 0
-15 18 252 0
20 21 253 0
-20 21 -253 0
20 -21 -253 0
-20 -21 253 0
-22 29 254 0
22 29 -254 0
-22 -29 -254 0
22 -29 254 0
30 34 255 0
-30 34 -255 0
30 -34 -255 0
-30 -34 255 0
36 -41 256 0
-36 -41 -256 0
36 41 -256 0
-36 41 256 0
44 -47 257 0
-44 -47 -257 0
44 47 -257 0
-44 47 257 0
248 -249 258 0
-248 -249 -258 0
248 249 -258 0
-248 249 258 0
250 -251 259 0
-250 -251 -259 0
250 251 -259 0
-250 251 259 0
252 -253 260 0
-252 -253 -260 0
252 253 -260 0
-252 253 260 0
254 -255 261 0
-254 -255 -261 0
254 255 -261 0
-254 255 261 0
256 -257 262 0
-256 -257 -262 0
256 257 -262 0
-256 257 262 0
258 -259 263 0
-258 -259 -263 0
258 259 -263 0
-258 259 263 0
260 -261 264 0
-260 -261 -264 0
260 261 -264 0
-260 261 264 0
-262 -263 264 0
262 -263 -264 0
-262 263 -264 0
262 263 264 0
3 4 265 0
-3 4 -265 0
3 -4 -265 0
-3 -4 265 0
-8 12 266 0
8 12 -266 0
-8 -12 -266 0
8 -12 266 0
14 17 267 0
-14 17 -267 0
14 -17 -267 0
-14 -17 267 0
-18 19 268 0
18 19 -268 0
-18 -19 -268 0
18 -19 268 0
-21 23 269 0
21 23 -269 0
-21 -23 -269 0
21 -23 269 0
-25 -29 270 0
25 -29 -270 0
-25 29 -270 0
25 29 270 0
-34 -35 271 0
34 -35 -271 0
-34 35 -271 0
34 35 271 0
39 40 272 0
-39 40 -272 0
39 -40 -272 0
-39 -40 272 0
-41 -42 273 0
41 -42 -273 0
-41 42 -273 0
41 42 273 0
-44 -48 274 0
44 -48 -274 0
-44 48 -274 0
44 48 274 0
264 -265 275 0
-264 -265 -275 0
264 265 -275 0
-264 265 275 0
266 -267 276 0
-266 -267 -276 0
266 267 -276 0
-266 267 276 0
268 -269 277 0
-268 -269 -277 0
268 269 -277 0
-268 269 277 0
270 -271 278 0
-270 -271 -278 0
270 271 -278 0
-270 271 278 0
272 -273 279 0
-272 -273 -279 0
272 273 -279 0
-272 273 279 0
274 -275 280 0
-274 -275 -280 0
274 275 -280 0
-274 275 280 0
276 -277 281 0
-276 -277 -281 0
276 277 -281 0
-276 277 281 0
278 -279 282 0
-278 -279 -282 0
278 279 -282 0
-278 279 282 0
-280 -281 282 0
280 -281 -282 0
-280 281 -282 0
280 281 282 0
1 2 283 0
-1 2 -283 0
1 -2 -283 0
-1 -2 283 0
-3 -5 284 0
3 -5 -284 0
-3 5 -284 0
3 5 284 0
6 7 285 0
-6 7 -285 0
6 -7 -285 0
-6 -7 285 0
-8 9 286 0
8 9 -286 0
-8 -9 -286 0
8 -9 286 0
-10 -12 287 0
10 -12 -287 0
-10 12 -287 0
10 12 287 0
13 16 288 0
-13 16 -288 0
13 -16 -288 0
-13 -16 288 0
-19 20 289 0
19 20 -289 0
-19 -20 -289 0
19 -20 289 0
23 25 290 0
-23 25 -290 0
23 -25 -290 0
-23 -25 290 0
29 30 291 0
-29 30 -291 0
29 -30 -291 0
-29 -30 291 0
-32 39 292 0
32 39 -292 0
-32 -39 -292 0
32 -39 292 0
-40 -44 293 0
40 -44 -293 0
-40 44 -293 0
40 44 293 0
47 48 294 0
-47 48 -294 0
47 -48 -294 0
-47 -48 294 0
282 -283 295 0
-282 -283 -295 0
282 283 -295 0
-282 283 295 0
284 -285 296 0
-284 -285 -296 0
284 285 -296 0
-284 285 296 0
286 -287 297 0
-286 -287 -297 0
286 287 -297 0
-286 287 297 0
288 -289 298 0
-288 -289 -298 0
288 289 -298 0
-288 289 298 0
290 -291 299 0
-290 -291 -299 0
290 291 -299 0
-290 291 299 0
292 -293 300 0
-292 -293 -300 0
292 293 -300 0
-292 293 300 0
294 -295 301 0
-294 -295 -301 0
294 295 -301 0
-294 295 301 0
296 -297 302 0
-296 -297 -302 0
296 297 -302 0
-296 297 302 0
298 -299 303 0
-298 -299 -303 0
298 299 -303 0
-298 299 303 0
300 -301 304 0
-300 -301 -304 0
300 301 -304 0
-300 301 304 0
302 -303 305 0
-302 -303 -305 0
302 303 -305 0
-302 303 305 0
304 305 0
-304 -305 0
1 3 306 0
-1 3 -306 0
1 -3 -306 0
-1 -3 306 0
-7 -8 307 0
7 -8 -307 0
-7 8 -307 0
7 8 307 0
12 16 308 0
-12 16 -308 0
12 -16 -308 0
-12 -16 308 0
-17 -19 309 0
17 -19 -309 0
-17 19 -309 0
17 19 309 0
21 -22 310 0
-21 -22 -310 0
21 22 -310 0
-21 22 310 0
23 24 311 0
-23 24 -311 0
23 -24 -311 0
-23 -24 311 0
27 -28 312 0
-27 -28 -312 0
27 28 -312 0
-27 28 312 0
-29 36 313 0
29 36 -313 0
-29 -36 -313 0
29 -36 313 0
38 -40 314 0
-38 -40 -314 0
38 40 -314 0
-38 40 314 0
41 -42 315 0
-41 -42 -315 0
41 42 -315 0
-41 42 315 0
-43 -44 316 0
43 -44 -316 0
-43 44 -316 0
43 44 316 0
45 48 317 0
-45 48 -317 0
45 -48 -317 0
-45 -48 317 0
306 -307 318 0
-306 -307 -318 0
306 307 -318 0
-306 307 318 0
308 -309 319 0
-308 -309 -319 0
308 309 -319 0
-308 309 319 0
310 -311 320 0
-310 -311 -320 0
310 311 -320 0
-310 311 320 0
312 -313 321 0
-312 -313 -321 0
312 313 -321 0
-312 313 321 0
314 -315 322 0
-314 -315 -322 0
314 315 -322 0
-314 315 322 0
316 -317 323 0
-316 -317 -323 0
316 317 -323 0
-316 317 323 0
318 -319 324 0
-318 -319 -324 0
318 319 -324 0
-318 319 324 0
320 -321 325 0
-320 -321 -325 0
320 321 -325 0
-320 321 325 0
322 -323 326 0
-322 -323 -326 0
322 323 -326 0
-322 323 326 0
-324 -325 326 0
324 -325 -326 0
-324 325 -326 0
324 325 326 0
1 -4 327 0
-1 -4 -327 0
1 4 -327 0
-1 4 327 0
5 7 328 0
-5 7 -328 0
5 -7 -328 0
-5 -7 328 0
-8 10 329 0
8 10 -329 0
-8 -10 -329 0
8 -10 329 0
-15 17 330 0
15 17 -330 0
-15 -17 -330 0
15 -17 330 0
18 -19 331 0
-18 -19 -331 0
18 19 -331 0
-18 19 331 0
-21 24 332 0
21 24 -332 0
-21 -24 -332 0
21 -24 332 0
-25 26 333 0
25 26 -333 0
-25 -26 -333 0
25 -26 333 0
27 -28 334 0
-27 -28 -334 0
27 28 -334 0
-27 28 334 0
30 -36 335 0
-30 -36 -335 0
30 36 -335 0
-30 36 335 0
37 39 336 0
-37 39 -336 0
37 -39 -336 0
-37 -39 336 0
40 45 337 0
-40 45 -337 0
40 -45 -337 0
-40 -45 337 0
-48 -49 338 0
48 -49 -338 0
-48 49 -338 0
48 49 338 0
327 -328 339 0
-327 -328 -339 0
327 328 -339 0
-327 328 339 0
329 -330 340 0
-329 -330 -340 0
329 330 -340 0
-329 330 340 0
331 -332 341 0
-331 -332 -341 0
331 332 -341 0
-331 332 341 0
333 -334 342 0
-333 -334 -342 0
333 334 -342 0
-333 334 342 0
335 -336 343 0
-335 -336 -343 0
335 336 -343 0
-335 336 343 0
337 -338 344 0
-337 -338 -344 0
337 338 -344 0
-337 338 344 0
339 -340 345 0
-339 -340 -345 0
339 340 -345 0
-339 340 345 0
341 -342 346 0
-341 -342 -346 0
341 342 -346 0
-341 342 346 0
343 -344 347 0
-343 -344 -347 0
343 344 -347 0
-343 344 347 0
-345 -346 347 0
345 -346 -347 0
-345 346 -347 0
345 346 347 0
3 -5 348 0
-3 -5 -348 0
3 5 -348 0
-3 5 348 0
9 -11 349 0
-9 -11 -349 0
9 11 -349 0
-9 11 349 0
15 -16 350 0
-15 -16 -350 0
15 16 -350 0
-15 16 350 0
17 -18 351 0
-17 -18 -351 0
17 18 -351 0
-17 18 351 0
24 33 352 0
-24 33 -352 0
24 -33 -352 0
-24 -33 352 0
34 35 353 0
-34 35 -353 0
34 -35 -353 0
-34 -35 353 0
41 -42 354 0
-41 -42 -354 0
41 42 -354 0
-41 42 354 0
-43 44 355 0
43 44 -355 0
-43 -44 -355 0
43 -44 355 0
48 50 356 0
-48 50 -356 0
48 -50 -356 0
-48 -50 356 0
348 -349 357 0
-348 -349 -357 0
348 349 -357 0
-348 349 357 0
350 -351 358 0
-350 -351 -358 0
350 351 -358 0
-350 351 358 0
352 -353 359 0
-352 -353 -359 0
352 353 -359 0
-352 353 359 0
354 -355 360 0
-354 -355 -360 0
354 355 -360 0
-354 355 360 0
356 -357 361 0
-356 -357 -361 0
356 357 -361 0
-356 357 361 0
358 -359 362 0
-358 -359 -362 0
358 359 -362 0
-358 359 362 0
-360 -361 362 0
360 -361 -362 0
-360 361 -362 0
360 361 362 0
2 -5 363 0
-2 -5 -363 0
2 5 -363 0
-2 5 363 0
6 7 364 0
-6 7 -364 0
6 -7 -364 0
-6 -7 364 0
8 11 365 0
-8 11 -365 0
8 -11 -365 0
-8 -11 365 0
12 13 366 0
-12 13 -366 0
12 -13 -366 0
-12 -13 366 0
-14 -19 367 0
14 -19 -367 0
-14 19 -367 0
14 19 367 0
-20 21 368 0
20 21 -368 0
-20 -21 -368 0
20 -21 368 0
-22 -30 369 0
22 -30 -369 0
-22 30 -369 0
22 30 369 0
-34 35 370 0
34 35 -370 0
-34 -35 -370 0
34 -35 370 0
-40 43 371 0
40 43 -371 0
-40 -43 -371 0
40 -43 371 0
44 45 372 0
-44 45 -372 0
44 -45 -372 0
-44 -45 372 0
48 50 373 0
-48 50 -373 0
48 -50 -373 0
-48 -50 373 0
363 -364 374 0
-363 -364 -374 0
363 364 -374 0
-363 364 374 0
365 -366 375 0
-365 -366 -375 0
365 366 -375 0
-365 366 375 0
367 -368 376 0
-367 -368 -376 0
367 368 -376 0
-367 368 376 0
369 -370 377 0
-369 -370 -377 0
369 370 -377 0
-369 370 377 0
371 -372 378 0
-371 -372 -378 0
371 372 -378 0
-371 372 378 0
373 -374 379 0
-373 -374 -379 0
373 374 -379 0
-373 374 379 0
375 -376 380 0
-375 -376 -380 0
375 376 -380 0
-375 376 380 0
377 -378 381 0
-377 -378 -381 0
377 378 -381 0
-377 378 381 0
-379 -380 381 0
379 -380 -381 0
-379 380 -381 0
379 380 381 0
5 7 382 0
-5 7 -382 0
5 -7 -382 0
-5 -7 382 0
9 11 383 0
-9 11 -383 0
9 -11 -383 0
-9 -11 383 0
-12 -13 384 0
12 -13 -384 0
-12 13 -384 0
12 13 384 0
-14 -16 385 0
14 -16 -385 0
-14 16 -385 0
14 16 385 0
-18 19 386 0
18 19 -386 0
-18 -19 -386 0
18 -19 386 0
20 -21 387 0
-20 -21 -387 0
20 21 -387 0
-20 21 387 0
-22 23 388 0
22 23 -388 0
-22 -23 -388 0
22 -23 388 0
24 -27 389 0
-24 -27 -389 0
24 27 -389 0
-24 27 389 0
28 29 390 0
-28 29 -390 0
28 -29 -390 0
-28 -29 390 0
30 33 391 0
-30 33 -391 0
30 -33 -391 0
-30 -33 391 0
-34 35 392 0
34 35 -392 0
-34 -35 -392 0
34 -35 392 0
38 -39 393 0
-38 -39 -393 0
38 39 -393 0
-38 39 393 0
-40 -42 394 0
40 -42 -394 0
-40 42 -394 0
40 42 394 0
47 -48 395 0
-47 -48 -395 0
47 48 -395 0
-47 48 395 0
382 -383 396 0
-382 -383 -396 0
382 383 -396 0
-382 383 396 0
384 -385 397 0
-384 -385 -397 0
384 385 -397 0
-384 385 397 0
386 -387 398 0
-386 -387 -398 0
386 387 -398 0
-386 387 398 0
388 -389 399 0
-388 -389 -399 0
388 389 -399 0
-388 389 399 0
390 -391 400 0
-390 -391 -400 0
390 391 -400 0
-390 391 400 0
392 -393 401 0
-392 -393 -401 0
392 393 -401 0
-392 393 401 0
394 -395 402 0
-394 -395 -402 0
394 395 -402 0
-394 395 402 0
396 -397 403 0
-396 -397 -403 0
396 397 -403 0
-396 397 403 0
398 -399 404 0
-398 -399 -404 0
398 399 -404 0
-398 399 404 0
400 -401 405 0
-400 -401 -405 0
400 401 -405 0
-400 401 405 0
402 -403 406 0
-402 -403 -406 0
402 403 -406 0
-402 403 406 0
404 -405 407 0
-404 -405 -407 0
404 405 -407 0
-404 405 407 0
406 407 0
-406 -407 0
6 -7 408 0
-6 -7 -408 0
6 7 -408 0
-6 7 408 0
9 -13 409 0
-9 -13 -409 0
9 13 -409 0
-9 13 409 0
14 -15 410 0
-14 -15 -410 0
14 15 -410 0
-14 15 410 0
-17 -18 411 0
17 -18 -411 0
-17 18 -411 0
17 18 411 0
20 -22 412 0
-20 -22 -412 0
20 22 -412 0
-20 22 412 0
27 -29 413 0
-27 -29 -413 0
27 29 -413 0
-27 29 413 0
-30 33 414 0
30 33 -414 0
-30 -33 -414 0
30 -33 414 0
35 38 415 0
-35 38 -415 0
35 -38 -415 0
-35 -38 415 0
40 -41 416 0
-40 -41 -416 0
40 41 -416 0
-40 41 416 0
-43 44 417 0
43 44 -417 0
-43 -44 -417 0
43 -44 417 0
46 -48 418 0
-46 -48 -418 0
46 48 -418 0
-46 48 418 0
49 50 419 0
-49 50 -419 0
49 -50 -419 0
-49 -50 419 0
408 -409 420 0
-408 -409 -420 0
408 409 -420 0
-408 409 420 0
410 -411 421 0
-410 -411 -421 0
410 411 -421 0
-410 411 421 0
412 -413 422 0
-412 -413 -422 0
412 413 -422 0
-412 413 422 0
414 -415 423 0
-414 -415 -423 0
414 415 -423 0
-414 415 423 0
416 -417 424 0
-416 -417 -424 0
416 417 -424 0
-416 417 424 0
418 -419 425 0
-418 -419 -425 0
418 419 -425 0
-418 419 425 0
420 -421 426 0
-420 -421 -426 0
420 421 -426 0
-420 421 426 0
422 -423 427 0
-422 -423 -427 0
422 423 -427 0
-422 423 427 0
424 -425 428 0
-424 -425 -428 0
424 425 -428 0
-424 425 428 0
-426 -427 428 0
426 -427 -428 0
-426 427 -428 0
426 427 428 0
2 4 429 0
-2 4 -429 0
2 -4 -429 0
-2 -4 429 0
-9 -11 430 0
9 -11 -430 0
-9 11 -430 0
9 11 430 0
12 14 431 0
-12 14 -431 0
12 -14 -431 0
-12 -14 431 0
-16 -17 432 0
16 -17 -432 0
-16 17 -432 0
16 17 432 0
22 -23 433 0
-22 -23 -433 0
22 23 -433 0
-22 23 433 0
-29 -34 434 0
29 -34 -434 0
-29 34 -434 0
29 34 434 0
-36 -38 435 0
36 -38 -435 0
-36 38 -435 0
36 38 435 0
42 46 436 0
-42 46 -436 0
42 -46 -436 0
-42 -46 436 0
47 -50 437 0
-47 -50 -437 0
47 50 -437 0
-47 50 437 0
429 -430 438 0
-429 -430 -438 0
429 430 -438 0
-429 430 438 0
431 -432 439 0
-431 -432 -439 0
431 432 -439 0
-431 432 439 0
433 -434 440 0
-433 -434 -440 0
433 434 -440 0
-433 434 440 0
435 -436 441 0
-435 -436 -441 0
435 436 -441 0
-435 436 441 0
437 -438 442 0
-437 -438 -442 0
437 438 -442 0
-437 438 442 0
439 -440 443 0
-439 -440 -443 0
439 440 -443 0
-439 440 443 0
-441 -442 443 0
441 -442 -443 0
-441 442 -443 0
441 442 443 0
1 2 444 0
-1 2 -444 0
1 -2 -444 0
-1 -2 444 0
-8 -13 445 0
8 -13 -445 0
-8 13 -445 0
8 13 445 0
-16 18 446 0
16 18 -446 0
-16 -18 -446 0
16 -18 446 0
-19 -22 447 0
19 -22 -447 0
-19 22 -447 0
19 22 447 0
-23 -26 448 0
23 -26 -448 0
-23 26 -448 0
23 26 448 0
-28 -29 449 0
28 -29 -449 0
-28 29 -449 0
28 29 449 0
30 33 450 0
-30 33 -450 0
30 -33 -450 0
-30 -33 450 0
-36 -39 451 0
36 -39 -451 0
-36 39 -451 0
36 39 451 0
-40 46 452 0
40 46 -452 0
-40 -46 -452 0
40 -46 452 0
-47 -48 453 0
47 -48 -453 0
-47 48 -453 0
47 48 453 0
443 -444 454 0
-443 -444 -454 0
443 444 -454 0
-443 444 454 0
445 -446 455 0
-445 -446 -455 0
445 446 -455 0
-445 446 455 0
447 -448 456 0
-447 -448 -456 0
447 448 -456 0
-447 448 456 0
449 -450 457 0
-449 -450 -457 0
449 450 -457 0
-449 450 457 0
451 -452 458 0
-451 -452 -458 0
451 452 -458 0
-451 452 458 0
453 -454 459 0
-453 -454 -459 0
453 454 -459 0
-453 454 459 0
455 -456 460 0
-455 -456 -460 0
455 456 -460 0
-455 456 460 0
457 -458 461 0
-457 -458 -461 0
457 458 -461 0
-457 458 461 0
-459 -460 461 0
459 -460 -461 0
-459 460 -461 0
459 460 461 0
-1 2 462 0
1 2 -462 0
-1 -2 -462 0
1 -2 462 0
3 7 463 0
-3 7 -463 0
3 -7 -463 0
-3 -7 463 0
8 -9 464 0
-8 -9 -464 0
8 9 -464 0
-8 9 464 0
10 12 465 0
-10 12 -465 0
10 -12 -465 0
-10 -12 465 0
-14 15 466 0
14 15 -466 0
-14 -15 -466 0
14 -15 466 0
17 -18 467 0
-17 -18 -467 0
17 18 -467 0
-17 18 467 0
-19 -20 468 0
19 -20 -468 0
-19 20 -468 0
19 20 468 0
-22 23 469 0
22 23 -469 0
-22 -23 -469 0
22 -23 469 0
25 26 470 0
-25 26 -470 0
25 -26 -470 0
-25 -26 470 0
28 -31 471 0
-28 -31 -471 0
28 31 -471 0
-28 31 471 0
-33 35 472 0
33 35 -472 0
-33 -35 -472 0
33 -35 472 0
-36 38 473 0
36 38 -473 0
-36 -38 -473 0
36 -38 473 0
-40 -42 474 0
40 -42 -474 0
-40 42 -474 0
40 42 474 0
43 44 475 0
-43 44 -475 0
43 -44 -475 0
-43 -44 475 0
461 -462 476 0
-461 -462 -476 0
461 462 -476 0
-461 462 476 0
463 -464 477 0
-463 -464 -477 0
463 464 -477 0
-463 464 477 0
465 -466 478 0
-465 -466 -478 0
465 466 -478 0
-465 466 478 0
467 -468 479 0
-467 -468 -479 0
467 468 -479 0
-467 468 479 0
469 -470 480 0
-469 -470 -480 0
469 470 -480 0
-469 470 480 0
471 -472 481 0
-471 -472 -481 0
471 472 -481 0
-471 472 481 0
473 -474 482 0
-473 -474 -482 0
473 474 -482 0
-473 474 482 0
475 -476 483 0
-475 -476 -483 0
475 476 -483 0
-475 476 483 0
477 -478 484 0
-477 -478 -484 0
477 478 -484 0
-477 478 484 0
479 -480 485 0
-479 -480 -485 0
479 480 -485 0
-479 480 485 0
481 -482 486 0
-481 -482 -486 0
481 482 -486 0
-481 482 486 0
483 -484 487 0
-483 -484 -487 0
483 484 -487 0
-483 484 487 0
485 -486 488 0
-485 -486 -488 0
485 486 -488 0
-485 486 488 0
487 488 0
-487 -488 0
